256114.01,18.11,19.83
251695.75,18.43,20.18
249100.68,18.62,20.39
261686.52,17.72,19.41
252219.02,18.39,20.14
254100.5,18.25,19.99
249913.23,18.56,20.33
253087.98,18.32,20.07
258291.51,17.95,19.67
252070.09,18.4,20.15
245670.78,18.88,20.68
257186.18,18.03,19.75
257495.27,18.01,19.73
252689.08,18.35,20.1
254273.21,18.24,19.98
249070.79,18.62,20.39
247322.32,18.75,20.54
253098.34,18.32,20.07
252361.94,18.38,20.13
246339.88,18.83,20.62
